40 390 
1 3 1
1 5 1
1 12 1
1 13 1
1 14 1
1 16 1
1 18 1
1 20 1
1 24 1
1 25 1
1 27 1
1 28 1
1 29 1
1 32 1
1 35 1
1 36 1
1 37 1
1 38 1
2 3 1
2 4 1
2 8 1
2 9 1
2 10 1
2 14 1
2 17 1
2 18 1
2 20 1
2 21 1
2 23 1
2 25 1
2 26 1
2 29 1
2 30 1
2 31 1
2 32 1
2 34 1
2 37 1
2 40 1
3 8 1
3 9 1
3 10 1
3 12 1
3 13 1
3 15 1
3 16 1
3 17 1
3 18 1
3 20 1
3 22 1
3 23 1
3 25 1
3 29 1
3 30 1
3 31 1
3 32 1
3 35 1
3 37 1
3 40 1
4 5 1
4 7 1
4 9 1
4 11 1
4 13 1
4 15 1
4 17 1
4 20 1
4 24 1
4 25 1
4 28 1
4 29 1
4 30 1
4 31 1
4 32 1
4 33 1
4 37 1
5 8 1
5 12 1
5 15 1
5 17 1
5 21 1
5 24 1
5 26 1
5 27 1
5 28 1
5 31 1
5 32 1
5 33 1
5 36 1
5 38 1
5 39 1
6 8 1
6 9 1
6 12 1
6 13 1
6 14 1
6 18 1
6 19 1
6 21 1
6 22 1
6 24 1
6 26 1
6 28 1
6 31 1
6 32 1
6 34 1
6 36 1
6 40 1
7 9 1
7 10 1
7 12 1
7 18 1
7 19 1
7 20 1
7 21 1
7 22 1
7 23 1
7 25 1
7 26 1
7 27 1
7 29 1
7 30 1
7 35 1
7 36 1
7 40 1
8 12 1
8 13 1
8 14 1
8 15 1
8 16 1
8 17 1
8 18 1
8 20 1
8 22 1
8 23 1
8 28 1
8 34 1
8 35 1
8 37 1
8 38 1
8 39 1
9 10 1
9 12 1
9 13 1
9 15 1
9 17 1
9 18 1
9 20 1
9 24 1
9 31 1
9 34 1
9 36 1
9 39 1
9 40 1
10 13 1
10 14 1
10 15 1
10 19 1
10 21 1
10 22 1
10 24 1
10 26 1
10 28 1
10 29 1
10 30 1
10 35 1
10 37 1
10 38 1
10 40 1
11 12 1
11 13 1
11 15 1
11 16 1
11 17 1
11 18 1
11 19 1
11 23 1
11 24 1
11 25 1
11 26 1
11 27 1
11 29 1
11 33 1
11 34 1
11 36 1
11 38 1
11 39 1
12 14 1
12 17 1
12 18 1
12 21 1
12 22 1
12 24 1
12 25 1
12 27 1
12 28 1
12 32 1
12 34 1
12 39 1
13 19 1
13 20 1
13 21 1
13 23 1
13 26 1
13 28 1
13 29 1
13 32 1
13 34 1
13 36 1
13 40 1
14 16 1
14 22 1
14 23 1
14 24 1
14 25 1
14 26 1
14 27 1
14 33 1
14 34 1
14 38 1
14 40 1
15 18 1
15 21 1
15 23 1
15 24 1
15 25 1
15 28 1
15 29 1
15 31 1
15 32 1
15 33 1
15 34 1
15 35 1
15 36 1
15 37 1
16 17 1
16 20 1
16 21 1
16 26 1
16 27 1
16 29 1
16 30 1
16 31 1
16 32 1
16 33 1
16 34 1
16 35 1
16 36 1
16 37 1
16 38 1
16 40 1
17 19 1
17 20 1
17 21 1
17 22 1
17 23 1
17 25 1
17 26 1
17 27 1
17 31 1
17 32 1
17 33 1
17 34 1
18 20 1
18 21 1
18 23 1
18 24 1
18 29 1
18 31 1
18 33 1
18 35 1
18 38 1
18 39 1
19 20 1
19 22 1
19 25 1
19 26 1
19 27 1
19 28 1
19 30 1
19 33 1
19 35 1
19 38 1
19 39 1
19 40 1
20 22 1
20 24 1
20 27 1
20 32 1
20 33 1
20 35 1
21 25 1
21 27 1
21 29 1
21 34 1
21 36 1
21 39 1
21 40 1
22 23 1
22 24 1
22 25 1
22 28 1
22 29 1
22 30 1
22 31 1
22 34 1
22 36 1
22 37 1
23 26 1
23 27 1
23 29 1
23 30 1
23 31 1
23 32 1
23 33 1
23 34 1
23 38 1
23 39 1
24 25 1
24 26 1
24 29 1
24 37 1
24 39 1
25 27 1
25 31 1
25 32 1
25 33 1
25 34 1
25 35 1
25 38 1
25 40 1
26 28 1
26 30 1
26 33 1
26 37 1
26 40 1
27 28 1
27 29 1
27 31 1
27 33 1
27 34 1
27 35 1
27 36 1
27 38 1
27 39 1
27 40 1
28 29 1
28 30 1
28 31 1
28 32 1
28 33 1
28 34 1
28 35 1
28 37 1
28 39 1
29 30 1
29 31 1
29 32 1
29 33 1
29 35 1
29 38 1
29 40 1
30 31 1
30 34 1
30 35 1
30 36 1
30 38 1
31 36 1
31 37 1
31 38 1
31 39 1
32 34 1
32 35 1
32 37 1
32 38 1
32 39 1
33 36 1
33 37 1
33 38 1
33 40 1
34 36 1
34 38 1
34 39 1
35 36 1
35 38 1
36 39 1
36 40 1
37 39 1
37 40 1
38 39 1
38 40 1
